
;this file is automatically generated: Wed Feb 26 14:38:42 CST 2020

;declarations generated

(declare-fun oclExcludes ( Int Int) Bool)
(declare-fun Cardinality ( Int) Int)
(declare-fun type_a09b3a5e_81b4_4b08_b662_05f70634050a_Class11 ( Int) Bool)
(declare-fun type_a09b3a5e_81b4_4b08_b662_05f70634050a_Class13 ( Int) Bool)
(declare-fun oclSelect ( Int Bool) Int)
(declare-fun obj_2506f478_0950_4d8c_ab90_2ba14a8a7741 ( Int) Int)
(declare-fun class6_Class6IntAttr2 ( Int) Int)
(declare-fun Enum0 ( Int) Int)
(declare-fun Enum1 ( Int) Int)
(declare-fun container_ ( Int) Int)
(declare-fun type_a09b3a5e_81b4_4b08_b662_05f70634050a_Class6 ( Int) Bool)
(declare-fun class6_Class6BoolAttr1 ( Int) Bool)
(declare-fun class6_Class6BoolAttr0 ( Int) Bool)
(declare-fun oclIncludes ( Int Int) Bool)
(declare-fun ObjAt ( Int Int) Int)

;formula(s) generated
(assert (! (or (forall ((v Int)) (=> (and (and ( type_a09b3a5e_81b4_4b08_b662_05f70634050a_Class6 v )  ( type_a09b3a5e_81b4_4b08_b662_05f70634050a_Class11 v ) ) ( type_a09b3a5e_81b4_4b08_b662_05f70634050a_Class13 v ) ) (or ( class6_Class6BoolAttr0 ( obj_2506f478_0950_4d8c_ab90_2ba14a8a7741 v )  )  (and (forall ((v Int)) (=> (and (and ( type_a09b3a5e_81b4_4b08_b662_05f70634050a_Class6 v )  ( type_a09b3a5e_81b4_4b08_b662_05f70634050a_Class11 v ) ) ( type_a09b3a5e_81b4_4b08_b662_05f70634050a_Class13 v ) ) ( class6_Class6BoolAttr1 ( obj_2506f478_0950_4d8c_ab90_2ba14a8a7741 v )  ) )) (forall ((v Int)) (=> (and (and ( type_a09b3a5e_81b4_4b08_b662_05f70634050a_Class6 v )  ( type_a09b3a5e_81b4_4b08_b662_05f70634050a_Class11 v ) ) ( type_a09b3a5e_81b4_4b08_b662_05f70634050a_Class13 v ) ) ( class6_Class6BoolAttr1 ( obj_2506f478_0950_4d8c_ab90_2ba14a8a7741 v )  ) )))))) (forall ((v Int)) (=> (and (and ( type_a09b3a5e_81b4_4b08_b662_05f70634050a_Class6 v )  ( type_a09b3a5e_81b4_4b08_b662_05f70634050a_Class11 v ) ) ( type_a09b3a5e_81b4_4b08_b662_05f70634050a_Class13 v ) ) (>= ( class6_Class6IntAttr2 ( obj_2506f478_0950_4d8c_ab90_2ba14a8a7741 v )  )  18)))):named l0))
(assert (! (and (forall ((v Int)) (=> (and (and ( type_a09b3a5e_81b4_4b08_b662_05f70634050a_Class6 v )  ( type_a09b3a5e_81b4_4b08_b662_05f70634050a_Class11 v ) ) ( type_a09b3a5e_81b4_4b08_b662_05f70634050a_Class13 v ) ) ( class6_Class6BoolAttr0 ( obj_2506f478_0950_4d8c_ab90_2ba14a8a7741 v )  ) )) (forall ((v Int)) (=> (and (and ( type_a09b3a5e_81b4_4b08_b662_05f70634050a_Class6 v )  ( type_a09b3a5e_81b4_4b08_b662_05f70634050a_Class11 v ) ) ( type_a09b3a5e_81b4_4b08_b662_05f70634050a_Class13 v ) ) ( class6_Class6BoolAttr1 ( obj_2506f478_0950_4d8c_ab90_2ba14a8a7741 v )  ) ))):named l1))
(assert (! (forall ((v Int)) (=> (and (and ( type_a09b3a5e_81b4_4b08_b662_05f70634050a_Class6 v )  ( type_a09b3a5e_81b4_4b08_b662_05f70634050a_Class11 v ) ) ( type_a09b3a5e_81b4_4b08_b662_05f70634050a_Class13 v ) ) (not ( class6_Class6BoolAttr0 ( obj_2506f478_0950_4d8c_ab90_2ba14a8a7741 v )  )  ))):named l2))
(assert (exists ((o Int)) (and (and ( type_a09b3a5e_81b4_4b08_b662_05f70634050a_Class6 ( obj_2506f478_0950_4d8c_ab90_2ba14a8a7741 o )  )  ( type_a09b3a5e_81b4_4b08_b662_05f70634050a_Class11 ( obj_2506f478_0950_4d8c_ab90_2ba14a8a7741 o )  ) ) ( type_a09b3a5e_81b4_4b08_b662_05f70634050a_Class13 ( obj_2506f478_0950_4d8c_ab90_2ba14a8a7741 o )  ) )))

 ;end of formula 